Timesteps: 1
s UNSATISFIABLE
real 0.19
user 0.03
sys 0.00
Timesteps: 2
s UNSATISFIABLE
real 0.18
user 0.07
sys 0.00
Timesteps: 3
s UNSATISFIABLE
real 0.34
user 0.12
sys 0.01
Timesteps: 4
s UNSATISFIABLE
real 0.48
user 0.32
sys 0.01
Timesteps: 5
s UNSATISFIABLE
real 0.81
user 0.56
sys 0.01
Timesteps: 6
s UNSATISFIABLE
real 1.24
user 0.98
sys 0.02
Timesteps: 7
s UNSATISFIABLE
real 4.85
user 4.15
sys 0.04
Timesteps: 8
s UNSATISFIABLE
real 10.96
user 10.15
sys 0.03
Timesteps: 9
s UNSATISFIABLE
real 21.30
user 20.32
sys 0.05
Timesteps: 10
s UNSATISFIABLE
real 31.93
user 30.78
sys 0.09
Timesteps: 11
s UNSATISFIABLE
real 40.30
user 38.98
sys 0.11
Timesteps: 12
s UNSATISFIABLE
real 56.48
user 55.08
sys 0.13
Timesteps: 13
s UNSATISFIABLE
real 140.11
user 138.92
sys 0.15
Timesteps: 14
s UNSATISFIABLE
real 473.25
user 470.47
sys 0.45
Timesteps: 15
s UNSATISFIABLE
real 1117.69
user 1111.97
sys 0.79
Timesteps: 16
